c 
c U(n,d) graph
c graph gen seed     : 527
c number of vertices : 60
c max number of edges: 1770
c Euclidean distance : 0.400000
c data structure     : sparse
c
c           Graph Stats
c number of vertices  : 60
c nonisolated vertices: 60
c number of edges     : 597
c edge density        : 0.337288
c max degree          : 32
c avg degree          : 19.90
c min degree          : 5
p col 60 597
e 1 60
e 1 56
e 1 52
e 1 40
e 1 34
e 1 31
e 1 22
e 1 20
e 1 16
e 1 15
e 1 14
e 1 13
e 1 12
e 1 11
e 1 7
e 1 5
e 1 4
e 1 3
e 2 55
e 2 51
e 2 50
e 2 48
e 2 47
e 2 46
e 2 44
e 2 39
e 2 38
e 2 36
e 2 34
e 2 33
e 2 30
e 2 25
e 2 24
e 2 23
e 2 22
e 2 21
e 2 18
e 2 17
e 2 10
e 2 9
e 2 8
e 2 6
e 3 60
e 3 56
e 3 52
e 3 40
e 3 34
e 3 31
e 3 20
e 3 15
e 3 14
e 3 13
e 3 12
e 3 11
e 3 7
e 3 5
e 3 4
e 4 60
e 4 56
e 4 52
e 4 40
e 4 34
e 4 31
e 4 22
e 4 20
e 4 16
e 4 15
e 4 14
e 4 13
e 4 12
e 4 11
e 4 7
e 4 5
e 5 60
e 5 56
e 5 52
e 5 50
e 5 49
e 5 40
e 5 34
e 5 33
e 5 31
e 5 27
e 5 22
e 5 20
e 5 15
e 5 14
e 5 13
e 5 12
e 5 11
e 5 7
e 6 43
e 6 36
e 6 30
e 6 21
e 6 18
e 6 17
e 6 9
e 6 8
e 7 52
e 7 40
e 7 39
e 7 38
e 7 34
e 7 24
e 7 22
e 7 18
e 7 16
e 7 15
e 7 14
e 7 13
e 7 12
e 7 11
e 8 59
e 8 58
e 8 55
e 8 54
e 8 51
e 8 48
e 8 46
e 8 42
e 8 41
e 8 36
e 8 30
e 8 21
e 8 19
e 8 17
e 8 10
e 8 9
e 9 59
e 9 58
e 9 55
e 9 54
e 9 51
e 9 48
e 9 47
e 9 46
e 9 44
e 9 42
e 9 41
e 9 39
e 9 38
e 9 36
e 9 33
e 9 30
e 9 28
e 9 25
e 9 23
e 9 21
e 9 19
e 9 17
e 9 10
e 10 59
e 10 58
e 10 57
e 10 55
e 10 54
e 10 51
e 10 50
e 10 49
e 10 48
e 10 47
e 10 46
e 10 44
e 10 42
e 10 41
e 10 39
e 10 38
e 10 33
e 10 28
e 10 25
e 10 23
e 10 19
e 10 17
e 11 60
e 11 56
e 11 52
e 11 40
e 11 34
e 11 31
e 11 20
e 11 15
e 11 14
e 11 13
e 11 12
e 12 60
e 12 56
e 12 52
e 12 50
e 12 47
e 12 44
e 12 40
e 12 39
e 12 38
e 12 34
e 12 33
e 12 31
e 12 27
e 12 25
e 12 24
e 12 23
e 12 22
e 12 20
e 12 18
e 12 16
e 12 15
e 12 14
e 12 13
e 13 60
e 13 56
e 13 52
e 13 50
e 13 49
e 13 47
e 13 44
e 13 40
e 13 39
e 13 38
e 13 34
e 13 33
e 13 31
e 13 27
e 13 25
e 13 24
e 13 23
e 13 22
e 13 20
e 13 15
e 13 14
e 14 60
e 14 56
e 14 52
e 14 50
e 14 49
e 14 47
e 14 44
e 14 40
e 14 39
e 14 38
e 14 34
e 14 33
e 14 31
e 14 27
e 14 25
e 14 24
e 14 23
e 14 22
e 14 20
e 14 16
e 14 15
e 15 60
e 15 56
e 15 52
e 15 50
e 15 49
e 15 40
e 15 39
e 15 38
e 15 34
e 15 33
e 15 31
e 15 27
e 15 24
e 15 22
e 15 20
e 16 43
e 16 38
e 16 34
e 16 24
e 16 22
e 16 18
e 17 59
e 17 58
e 17 55
e 17 54
e 17 51
e 17 48
e 17 47
e 17 46
e 17 44
e 17 42
e 17 41
e 17 36
e 17 30
e 17 25
e 17 23
e 17 21
e 17 19
e 18 43
e 18 39
e 18 38
e 18 34
e 18 30
e 18 25
e 18 24
e 18 23
e 18 22
e 19 59
e 19 58
e 19 55
e 19 54
e 19 51
e 19 48
e 19 46
e 19 42
e 19 41
e 19 36
e 19 21
e 20 60
e 20 56
e 20 52
e 20 50
e 20 49
e 20 40
e 20 34
e 20 31
e 20 27
e 21 55
e 21 54
e 21 51
e 21 48
e 21 42
e 21 36
e 21 30
e 21 25
e 22 52
e 22 50
e 22 44
e 22 40
e 22 39
e 22 38
e 22 34
e 22 33
e 22 30
e 22 25
e 22 24
e 22 23
e 23 55
e 23 50
e 23 49
e 23 48
e 23 47
e 23 46
e 23 44
e 23 40
e 23 39
e 23 38
e 23 34
e 23 33
e 23 30
e 23 28
e 23 25
e 23 24
e 24 50
e 24 47
e 24 44
e 24 43
e 24 40
e 24 39
e 24 38
e 24 34
e 24 33
e 24 30
e 24 25
e 25 57
e 25 55
e 25 51
e 25 50
e 25 48
e 25 47
e 25 46
e 25 44
e 25 41
e 25 40
e 25 39
e 25 38
e 25 34
e 25 33
e 25 30
e 25 28
e 26 60
e 26 57
e 26 56
e 26 53
e 26 49
e 26 45
e 26 37
e 26 35
e 26 32
e 26 29
e 26 28
e 26 27
e 27 60
e 27 57
e 27 56
e 27 53
e 27 50
e 27 49
e 27 47
e 27 45
e 27 44
e 27 40
e 27 39
e 27 37
e 27 34
e 27 33
e 27 32
e 27 31
e 27 29
e 27 28
e 28 59
e 28 58
e 28 57
e 28 55
e 28 53
e 28 51
e 28 50
e 28 49
e 28 48
e 28 47
e 28 46
e 28 44
e 28 41
e 28 39
e 28 37
e 28 33
e 28 29
e 29 57
e 29 53
e 29 49
e 29 45
e 29 37
e 29 35
e 29 32
e 30 55
e 30 48
e 30 47
e 30 44
e 30 43
e 30 39
e 30 38
e 30 36
e 30 34
e 31 60
e 31 56
e 31 52
e 31 50
e 31 49
e 31 40
e 31 34
e 32 60
e 32 57
e 32 56
e 32 53
e 32 49
e 32 45
e 32 37
e 32 35
e 33 60
e 33 57
e 33 56
e 33 55
e 33 50
e 33 49
e 33 48
e 33 47
e 33 46
e 33 44
e 33 41
e 33 40
e 33 39
e 33 38
e 33 37
e 33 34
e 34 60
e 34 56
e 34 52
e 34 50
e 34 49
e 34 47
e 34 44
e 34 40
e 34 39
e 34 38
e 35 57
e 35 53
e 35 45
e 35 37
e 36 59
e 36 55
e 36 54
e 36 51
e 36 48
e 36 42
e 37 60
e 37 57
e 37 56
e 37 53
e 37 50
e 37 49
e 37 45
e 38 50
e 38 48
e 38 47
e 38 46
e 38 44
e 38 40
e 38 39
e 39 56
e 39 55
e 39 50
e 39 49
e 39 48
e 39 47
e 39 46
e 39 44
e 39 40
e 40 60
e 40 56
e 40 52
e 40 50
e 40 49
e 40 47
e 40 44
e 41 59
e 41 58
e 41 57
e 41 55
e 41 54
e 41 53
e 41 51
e 41 48
e 41 47
e 41 46
e 41 44
e 41 42
e 42 59
e 42 58
e 42 55
e 42 54
e 42 51
e 42 48
e 42 46
e 44 57
e 44 55
e 44 51
e 44 50
e 44 49
e 44 48
e 44 47
e 44 46
e 45 57
e 45 53
e 45 49
e 46 59
e 46 58
e 46 57
e 46 55
e 46 54
e 46 51
e 46 50
e 46 49
e 46 48
e 46 47
e 47 57
e 47 55
e 47 51
e 47 50
e 47 49
e 47 48
e 48 59
e 48 58
e 48 55
e 48 54
e 48 51
e 49 60
e 49 57
e 49 56
e 49 53
e 49 50
e 50 60
e 50 57
e 50 56
e 51 59
e 51 58
e 51 55
e 51 54
e 52 60
e 52 56
e 53 57
e 54 59
e 54 58
e 54 55
e 55 59
e 55 58
e 56 60
e 58 59
